% Logging successfully configured
%%%mzn-stat: initTime=0.003612148
%%%mzn-stat: objective=693
%%%mzn-stat: nodes=175
%%%mzn-stat: restarts=0
%%%mzn-stat: peakDepth=175
%%%mzn-stat: solveTime=0.000685279
%%%mzn-stat: variables=362
%%%mzn-stat: propagators=247
%%%mzn-stat: failures=0
%%%mzn-stat: propagations=852
%%%mzn-stat: nogoods=0
%%%mzn-stat: numAtomicConstraintsPropagated=0
%%%mzn-stat: allDifferentNumber1PropagationsTotal=34
%%%mzn-stat: allDifferentNumber1PropagationsThatFoundConflict=0
%%%mzn-stat: allDifferentNumber1PropagationsThatPruned=18
%%%mzn-stat: allDifferentNumber1TotalValuesPruned=73
%%%mzn-stat: allDifferentNumber1TotalHallSetSizeConflict=0
%%%mzn-stat: allDifferentNumber1NumberOfConflicts=0
%%%mzn-stat: allDifferentNumber1MaxHallSetSizeConflict=0
%%%mzn-stat: allDifferentNumber1TotalPruningHallSetSize=82
%%%mzn-stat: allDifferentNumber1NumberOfPruningExplanations=73
%%%mzn-stat: allDifferentNumber1MaxPruningHallSetSize=5
%%%mzn-stat: allDifferentNumber1TotalFixedEdgesAtConflict=0
%%%mzn-stat: allDifferentNumber1TotalVarsInvolvedInPruning=72
%%%mzn-stat: allDifferentNumber1MaxValuesPrunedFromSingleVar=2
%%%mzn-stat: allDifferentNumber1TotalSccSizeAtPruning=28
%%%mzn-stat: allDifferentNumber1NumberOfSccPruningCalls=18
%%%mzn-stat: circuitNumber2PropagationsThatFoundConflict=0
%%%mzn-stat: circuitNumber2TotalFixedEdgesAtConflict=0
%%%mzn-stat: circuitNumber2NumberOfConflicts=0
%%%mzn-stat: circuitNumber2PropagationsThatPruned=2
%%%mzn-stat: circuitNumber2PropagationsTotal=19
%%%mzn-stat: AverageConflictSize=0
%%%mzn-stat: NumUnitNogoodsLearned=0
%%%mzn-stat: AverageLearnedNogoodLength=0
%%%mzn-stat: AverageBacktrackAmount=0
%%%mzn-stat: AverageLbd=0
%%%mzn-stat: 2AutonomousSearchNumBackupCalled=159
%%%mzn-stat: 2AutonomousSearchNumPredicatesRemoved=0
%%%mzn-stat: 2AutonomousSearchNumCalls=160
%%%mzn-stat: 2AutonomousSearchNumPredicatesAdded=0
%%%mzn-stat: 2AutonomousSearchAverageSizeOfHeap=0
%%%mzn-stat: 2AutonomousSearchNumAssignedPredicatesEncountered=0
%%%mzn-stat-end
maxleg = 693;
succ = array1d(1..20,[2, 4, 5, 3, 7, 1, 8, 10, 6, 12, 9, 18, 16, 19, 13, 20, 15, 17, 11, 14]);
% time elapsed: 5.95 s
----------
%%%mzn-stat: initTime=0.003612148
%%%mzn-stat: objective=588
%%%mzn-stat: nodes=333
%%%mzn-stat: restarts=0
%%%mzn-stat: peakDepth=175
%%%mzn-stat: solveTime=0.001176199
%%%mzn-stat: variables=362
%%%mzn-stat: propagators=247
%%%mzn-stat: failures=0
%%%mzn-stat: propagations=1285
%%%mzn-stat: nogoods=0
%%%mzn-stat: numAtomicConstraintsPropagated=0
%%%mzn-stat: allDifferentNumber1PropagationsTotal=64
%%%mzn-stat: allDifferentNumber1PropagationsThatFoundConflict=0
%%%mzn-stat: allDifferentNumber1PropagationsThatPruned=34
%%%mzn-stat: allDifferentNumber1TotalValuesPruned=146
%%%mzn-stat: allDifferentNumber1TotalHallSetSizeConflict=0
%%%mzn-stat: allDifferentNumber1NumberOfConflicts=0
%%%mzn-stat: allDifferentNumber1MaxHallSetSizeConflict=0
%%%mzn-stat: allDifferentNumber1TotalPruningHallSetSize=166
%%%mzn-stat: allDifferentNumber1NumberOfPruningExplanations=146
%%%mzn-stat: allDifferentNumber1MaxPruningHallSetSize=5
%%%mzn-stat: allDifferentNumber1TotalFixedEdgesAtConflict=0
%%%mzn-stat: allDifferentNumber1TotalVarsInvolvedInPruning=142
%%%mzn-stat: allDifferentNumber1MaxValuesPrunedFromSingleVar=2
%%%mzn-stat: allDifferentNumber1TotalSccSizeAtPruning=55
%%%mzn-stat: allDifferentNumber1NumberOfSccPruningCalls=34
%%%mzn-stat: circuitNumber2PropagationsThatFoundConflict=0
%%%mzn-stat: circuitNumber2TotalFixedEdgesAtConflict=0
%%%mzn-stat: circuitNumber2NumberOfConflicts=0
%%%mzn-stat: circuitNumber2PropagationsThatPruned=5
%%%mzn-stat: circuitNumber2PropagationsTotal=36
%%%mzn-stat: AverageConflictSize=0
%%%mzn-stat: NumUnitNogoodsLearned=0
%%%mzn-stat: AverageLearnedNogoodLength=0
%%%mzn-stat: AverageBacktrackAmount=0
%%%mzn-stat: AverageLbd=0
%%%mzn-stat: 2AutonomousSearchNumBackupCalled=303
%%%mzn-stat: 2AutonomousSearchNumPredicatesRemoved=0
%%%mzn-stat: 2AutonomousSearchNumCalls=305
%%%mzn-stat: 2AutonomousSearchNumPredicatesAdded=0
%%%mzn-stat: 2AutonomousSearchAverageSizeOfHeap=0
%%%mzn-stat: 2AutonomousSearchNumAssignedPredicatesEncountered=0
%%%mzn-stat-end
maxleg = 588;
succ = array1d(1..20,[2, 4, 5, 3, 7, 1, 8, 10, 6, 12, 9, 18, 16, 19, 20, 14, 15, 17, 11, 13]);
% time elapsed: 5.95 s
----------
%%%mzn-stat: initTime=0.003612148
%%%mzn-stat: objective=519
%%%mzn-stat: nodes=488
%%%mzn-stat: restarts=0
%%%mzn-stat: peakDepth=175
%%%mzn-stat: solveTime=0.001651392
%%%mzn-stat: variables=362
%%%mzn-stat: propagators=247
%%%mzn-stat: failures=0
%%%mzn-stat: propagations=1717
%%%mzn-stat: nogoods=0
%%%mzn-stat: numAtomicConstraintsPropagated=0
%%%mzn-stat: allDifferentNumber1PropagationsTotal=92
%%%mzn-stat: allDifferentNumber1PropagationsThatFoundConflict=0
%%%mzn-stat: allDifferentNumber1PropagationsThatPruned=48
%%%mzn-stat: allDifferentNumber1TotalValuesPruned=220
%%%mzn-stat: allDifferentNumber1TotalHallSetSizeConflict=0
%%%mzn-stat: allDifferentNumber1NumberOfConflicts=0
%%%mzn-stat: allDifferentNumber1MaxHallSetSizeConflict=0
%%%mzn-stat: allDifferentNumber1TotalPruningHallSetSize=277
%%%mzn-stat: allDifferentNumber1NumberOfPruningExplanations=220
%%%mzn-stat: allDifferentNumber1MaxPruningHallSetSize=8
%%%mzn-stat: allDifferentNumber1TotalFixedEdgesAtConflict=0
%%%mzn-stat: allDifferentNumber1TotalVarsInvolvedInPruning=210
%%%mzn-stat: allDifferentNumber1MaxValuesPrunedFromSingleVar=4
%%%mzn-stat: allDifferentNumber1TotalSccSizeAtPruning=86
%%%mzn-stat: allDifferentNumber1NumberOfSccPruningCalls=48
%%%mzn-stat: circuitNumber2PropagationsThatFoundConflict=0
%%%mzn-stat: circuitNumber2TotalFixedEdgesAtConflict=0
%%%mzn-stat: circuitNumber2NumberOfConflicts=0
%%%mzn-stat: circuitNumber2PropagationsThatPruned=6
%%%mzn-stat: circuitNumber2PropagationsTotal=50
%%%mzn-stat: AverageConflictSize=0
%%%mzn-stat: NumUnitNogoodsLearned=0
%%%mzn-stat: AverageLearnedNogoodLength=0
%%%mzn-stat: AverageBacktrackAmount=0
%%%mzn-stat: AverageLbd=0
%%%mzn-stat: 2AutonomousSearchNumBackupCalled=445
%%%mzn-stat: 2AutonomousSearchNumPredicatesRemoved=0
%%%mzn-stat: 2AutonomousSearchNumCalls=448
%%%mzn-stat: 2AutonomousSearchNumPredicatesAdded=0
%%%mzn-stat: 2AutonomousSearchAverageSizeOfHeap=0
%%%mzn-stat: 2AutonomousSearchNumAssignedPredicatesEncountered=0
%%%mzn-stat-end
maxleg = 519;
succ = array1d(1..20,[2, 4, 5, 3, 7, 1, 8, 10, 11, 9, 12, 19, 15, 16, 17, 20, 18, 6, 14, 13]);
% time elapsed: 5.95 s
----------
%%%mzn-stat: initTime=0.003612148
%%%mzn-stat: objective=490
%%%mzn-stat: nodes=787
%%%mzn-stat: restarts=0
%%%mzn-stat: peakDepth=175
%%%mzn-stat: solveTime=0.018474643
%%%mzn-stat: variables=362
%%%mzn-stat: propagators=247
%%%mzn-stat: failures=140
%%%mzn-stat: propagations=6839
%%%mzn-stat: nogoods=140
%%%mzn-stat: numAtomicConstraintsPropagated=0
%%%mzn-stat: allDifferentNumber1PropagationsTotal=609
%%%mzn-stat: allDifferentNumber1PropagationsThatFoundConflict=5
%%%mzn-stat: allDifferentNumber1PropagationsThatPruned=373
%%%mzn-stat: allDifferentNumber1TotalValuesPruned=1645
%%%mzn-stat: allDifferentNumber1TotalHallSetSizeConflict=11
%%%mzn-stat: allDifferentNumber1NumberOfConflicts=5
%%%mzn-stat: allDifferentNumber1MaxHallSetSizeConflict=3
%%%mzn-stat: allDifferentNumber1TotalPruningHallSetSize=3778
%%%mzn-stat: allDifferentNumber1NumberOfPruningExplanations=1645
%%%mzn-stat: allDifferentNumber1MaxPruningHallSetSize=9
%%%mzn-stat: allDifferentNumber1TotalFixedEdgesAtConflict=71
%%%mzn-stat: allDifferentNumber1TotalVarsInvolvedInPruning=1293
%%%mzn-stat: allDifferentNumber1MaxValuesPrunedFromSingleVar=5
%%%mzn-stat: allDifferentNumber1TotalSccSizeAtPruning=1741
%%%mzn-stat: allDifferentNumber1NumberOfSccPruningCalls=373
%%%mzn-stat: circuitNumber2PropagationsThatFoundConflict=133
%%%mzn-stat: circuitNumber2TotalFixedEdgesAtConflict=2285
%%%mzn-stat: circuitNumber2NumberOfConflicts=133
%%%mzn-stat: circuitNumber2PropagationsThatPruned=80
%%%mzn-stat: circuitNumber2PropagationsTotal=372
%%%mzn-stat: AverageConflictSize=8.3
%%%mzn-stat: NumUnitNogoodsLearned=0
%%%mzn-stat: AverageLearnedNogoodLength=17.82857142857143
%%%mzn-stat: AverageBacktrackAmount=0
%%%mzn-stat: AverageLbd=9.592857142857143
%%%mzn-stat: 2AutonomousSearchNumBackupCalled=580
%%%mzn-stat: 2AutonomousSearchNumPredicatesRemoved=0
%%%mzn-stat: 2AutonomousSearchNumCalls=584
%%%mzn-stat: 2AutonomousSearchNumPredicatesAdded=322
%%%mzn-stat: 2AutonomousSearchAverageSizeOfHeap=0.5513698630136986
%%%mzn-stat: 2AutonomousSearchNumAssignedPredicatesEncountered=322
%%%mzn-stat-end
maxleg = 490;
succ = array1d(1..20,[2, 4, 5, 3, 7, 1, 8, 13, 10, 14, 6, 9, 20, 16, 17, 19, 18, 12, 11, 15]);
% time elapsed: 5.95 s
----------
%%%mzn-stat: initTime=0.003612148
%%%mzn-stat: objective=487
%%%mzn-stat: nodes=932
%%%mzn-stat: restarts=0
%%%mzn-stat: peakDepth=175
%%%mzn-stat: solveTime=0.019006687
%%%mzn-stat: variables=362
%%%mzn-stat: propagators=247
%%%mzn-stat: failures=140
%%%mzn-stat: propagations=7283
%%%mzn-stat: nogoods=140
%%%mzn-stat: numAtomicConstraintsPropagated=0
%%%mzn-stat: allDifferentNumber1PropagationsTotal=634
%%%mzn-stat: allDifferentNumber1PropagationsThatFoundConflict=5
%%%mzn-stat: allDifferentNumber1PropagationsThatPruned=385
%%%mzn-stat: allDifferentNumber1TotalValuesPruned=1702
%%%mzn-stat: allDifferentNumber1TotalHallSetSizeConflict=11
%%%mzn-stat: allDifferentNumber1NumberOfConflicts=5
%%%mzn-stat: allDifferentNumber1MaxHallSetSizeConflict=3
%%%mzn-stat: allDifferentNumber1TotalPruningHallSetSize=3845
%%%mzn-stat: allDifferentNumber1NumberOfPruningExplanations=1702
%%%mzn-stat: allDifferentNumber1MaxPruningHallSetSize=9
%%%mzn-stat: allDifferentNumber1TotalFixedEdgesAtConflict=71
%%%mzn-stat: allDifferentNumber1TotalVarsInvolvedInPruning=1347
%%%mzn-stat: allDifferentNumber1MaxValuesPrunedFromSingleVar=5
%%%mzn-stat: allDifferentNumber1TotalSccSizeAtPruning=1761
%%%mzn-stat: allDifferentNumber1NumberOfSccPruningCalls=385
%%%mzn-stat: circuitNumber2PropagationsThatFoundConflict=133
%%%mzn-stat: circuitNumber2TotalFixedEdgesAtConflict=2285
%%%mzn-stat: circuitNumber2NumberOfConflicts=133
%%%mzn-stat: circuitNumber2PropagationsThatPruned=81
%%%mzn-stat: circuitNumber2PropagationsTotal=385
%%%mzn-stat: AverageConflictSize=8.3
%%%mzn-stat: NumUnitNogoodsLearned=0
%%%mzn-stat: AverageLearnedNogoodLength=17.82857142857143
%%%mzn-stat: AverageBacktrackAmount=0
%%%mzn-stat: AverageLbd=9.592857142857143
%%%mzn-stat: 2AutonomousSearchNumBackupCalled=712
%%%mzn-stat: 2AutonomousSearchNumPredicatesRemoved=0
%%%mzn-stat: 2AutonomousSearchNumCalls=717
%%%mzn-stat: 2AutonomousSearchNumPredicatesAdded=322
%%%mzn-stat: 2AutonomousSearchAverageSizeOfHeap=0.898186889818689
%%%mzn-stat: 2AutonomousSearchNumAssignedPredicatesEncountered=644
%%%mzn-stat-end
maxleg = 487;
succ = array1d(1..20,[2, 4, 7, 3, 8, 1, 5, 13, 10, 14, 6, 9, 20, 16, 17, 19, 18, 12, 11, 15]);
% time elapsed: 5.95 s
----------
%%%mzn-stat: initTime=0.003612148
%%%mzn-stat: objective=460
%%%mzn-stat: nodes=1060
%%%mzn-stat: restarts=0
%%%mzn-stat: peakDepth=175
%%%mzn-stat: solveTime=0.020195179
%%%mzn-stat: variables=362
%%%mzn-stat: propagators=247
%%%mzn-stat: failures=140
%%%mzn-stat: propagations=7732
%%%mzn-stat: nogoods=140
%%%mzn-stat: numAtomicConstraintsPropagated=0
%%%mzn-stat: allDifferentNumber1PropagationsTotal=660
%%%mzn-stat: allDifferentNumber1PropagationsThatFoundConflict=5
%%%mzn-stat: allDifferentNumber1PropagationsThatPruned=398
%%%mzn-stat: allDifferentNumber1TotalValuesPruned=1759
%%%mzn-stat: allDifferentNumber1TotalHallSetSizeConflict=11
%%%mzn-stat: allDifferentNumber1NumberOfConflicts=5
%%%mzn-stat: allDifferentNumber1MaxHallSetSizeConflict=3
%%%mzn-stat: allDifferentNumber1TotalPruningHallSetSize=3908
%%%mzn-stat: allDifferentNumber1NumberOfPruningExplanations=1759
%%%mzn-stat: allDifferentNumber1MaxPruningHallSetSize=9
%%%mzn-stat: allDifferentNumber1TotalFixedEdgesAtConflict=71
%%%mzn-stat: allDifferentNumber1TotalVarsInvolvedInPruning=1401
%%%mzn-stat: allDifferentNumber1MaxValuesPrunedFromSingleVar=5
%%%mzn-stat: allDifferentNumber1TotalSccSizeAtPruning=1781
%%%mzn-stat: allDifferentNumber1NumberOfSccPruningCalls=398
%%%mzn-stat: circuitNumber2PropagationsThatFoundConflict=133
%%%mzn-stat: circuitNumber2TotalFixedEdgesAtConflict=2285
%%%mzn-stat: circuitNumber2NumberOfConflicts=133
%%%mzn-stat: circuitNumber2PropagationsThatPruned=83
%%%mzn-stat: circuitNumber2PropagationsTotal=399
%%%mzn-stat: AverageConflictSize=8.3
%%%mzn-stat: NumUnitNogoodsLearned=0
%%%mzn-stat: AverageLearnedNogoodLength=17.82857142857143
%%%mzn-stat: AverageBacktrackAmount=0
%%%mzn-stat: AverageLbd=9.592857142857143
%%%mzn-stat: 2AutonomousSearchNumBackupCalled=827
%%%mzn-stat: 2AutonomousSearchNumPredicatesRemoved=0
%%%mzn-stat: 2AutonomousSearchNumCalls=833
%%%mzn-stat: 2AutonomousSearchNumPredicatesAdded=322
%%%mzn-stat: 2AutonomousSearchAverageSizeOfHeap=1.1596638655462186
%%%mzn-stat: 2AutonomousSearchNumAssignedPredicatesEncountered=966
%%%mzn-stat-end
maxleg = 460;
succ = array1d(1..20,[2, 4, 7, 3, 8, 1, 5, 13, 10, 14, 9, 6, 20, 16, 17, 19, 18, 11, 12, 15]);
% time elapsed: 5.96 s
----------
%%%mzn-stat: initTime=0.003612148
%%%mzn-stat: objective=410
%%%mzn-stat: nodes=1185
%%%mzn-stat: restarts=0
%%%mzn-stat: peakDepth=175
%%%mzn-stat: solveTime=0.020756624
%%%mzn-stat: variables=362
%%%mzn-stat: propagators=247
%%%mzn-stat: failures=140
%%%mzn-stat: propagations=8194
%%%mzn-stat: nogoods=140
%%%mzn-stat: numAtomicConstraintsPropagated=0
%%%mzn-stat: allDifferentNumber1PropagationsTotal=686
%%%mzn-stat: allDifferentNumber1PropagationsThatFoundConflict=5
%%%mzn-stat: allDifferentNumber1PropagationsThatPruned=411
%%%mzn-stat: allDifferentNumber1TotalValuesPruned=1817
%%%mzn-stat: allDifferentNumber1TotalHallSetSizeConflict=11
%%%mzn-stat: allDifferentNumber1NumberOfConflicts=5
%%%mzn-stat: allDifferentNumber1MaxHallSetSizeConflict=3
%%%mzn-stat: allDifferentNumber1TotalPruningHallSetSize=4033
%%%mzn-stat: allDifferentNumber1NumberOfPruningExplanations=1817
%%%mzn-stat: allDifferentNumber1MaxPruningHallSetSize=13
%%%mzn-stat: allDifferentNumber1TotalFixedEdgesAtConflict=71
%%%mzn-stat: allDifferentNumber1TotalVarsInvolvedInPruning=1451
%%%mzn-stat: allDifferentNumber1MaxValuesPrunedFromSingleVar=5
%%%mzn-stat: allDifferentNumber1TotalSccSizeAtPruning=1850
%%%mzn-stat: allDifferentNumber1NumberOfSccPruningCalls=411
%%%mzn-stat: circuitNumber2PropagationsThatFoundConflict=133
%%%mzn-stat: circuitNumber2TotalFixedEdgesAtConflict=2285
%%%mzn-stat: circuitNumber2NumberOfConflicts=133
%%%mzn-stat: circuitNumber2PropagationsThatPruned=85
%%%mzn-stat: circuitNumber2PropagationsTotal=413
%%%mzn-stat: AverageConflictSize=8.3
%%%mzn-stat: NumUnitNogoodsLearned=0
%%%mzn-stat: AverageLearnedNogoodLength=17.82857142857143
%%%mzn-stat: AverageBacktrackAmount=0
%%%mzn-stat: AverageLbd=9.592857142857143
%%%mzn-stat: 2AutonomousSearchNumBackupCalled=941
%%%mzn-stat: 2AutonomousSearchNumPredicatesRemoved=0
%%%mzn-stat: 2AutonomousSearchNumCalls=948
%%%mzn-stat: 2AutonomousSearchNumPredicatesAdded=322
%%%mzn-stat: 2AutonomousSearchAverageSizeOfHeap=1.358649789029536
%%%mzn-stat: 2AutonomousSearchNumAssignedPredicatesEncountered=1288
%%%mzn-stat-end
maxleg = 410;
succ = array1d(1..20,[2, 4, 7, 3, 8, 12, 5, 13, 10, 14, 1, 9, 20, 16, 17, 19, 18, 6, 11, 15]);
% time elapsed: 5.96 s
----------
%%%mzn-stat: initTime=0.003612148
%%%mzn-stat: objective=368
%%%mzn-stat: nodes=1309
%%%mzn-stat: restarts=0
%%%mzn-stat: peakDepth=175
%%%mzn-stat: solveTime=0.021726894
%%%mzn-stat: variables=362
%%%mzn-stat: propagators=247
%%%mzn-stat: failures=143
%%%mzn-stat: propagations=8760
%%%mzn-stat: nogoods=143
%%%mzn-stat: numAtomicConstraintsPropagated=0
%%%mzn-stat: allDifferentNumber1PropagationsTotal=724
%%%mzn-stat: allDifferentNumber1PropagationsThatFoundConflict=5
%%%mzn-stat: allDifferentNumber1PropagationsThatPruned=430
%%%mzn-stat: allDifferentNumber1TotalValuesPruned=1895
%%%mzn-stat: allDifferentNumber1TotalHallSetSizeConflict=11
%%%mzn-stat: allDifferentNumber1NumberOfConflicts=5
%%%mzn-stat: allDifferentNumber1MaxHallSetSizeConflict=3
%%%mzn-stat: allDifferentNumber1TotalPruningHallSetSize=4193
%%%mzn-stat: allDifferentNumber1NumberOfPruningExplanations=1895
%%%mzn-stat: allDifferentNumber1MaxPruningHallSetSize=13
%%%mzn-stat: allDifferentNumber1TotalFixedEdgesAtConflict=71
%%%mzn-stat: allDifferentNumber1TotalVarsInvolvedInPruning=1522
%%%mzn-stat: allDifferentNumber1MaxValuesPrunedFromSingleVar=5
%%%mzn-stat: allDifferentNumber1TotalSccSizeAtPruning=1936
%%%mzn-stat: allDifferentNumber1NumberOfSccPruningCalls=430
%%%mzn-stat: circuitNumber2PropagationsThatFoundConflict=136
%%%mzn-stat: circuitNumber2TotalFixedEdgesAtConflict=2335
%%%mzn-stat: circuitNumber2NumberOfConflicts=136
%%%mzn-stat: circuitNumber2PropagationsThatPruned=87
%%%mzn-stat: circuitNumber2PropagationsTotal=433
%%%mzn-stat: AverageConflictSize=8.44055944055944
%%%mzn-stat: NumUnitNogoodsLearned=0
%%%mzn-stat: AverageLearnedNogoodLength=17.986013986013987
%%%mzn-stat: AverageBacktrackAmount=0
%%%mzn-stat: AverageLbd=9.594405594405595
%%%mzn-stat: 2AutonomousSearchNumBackupCalled=1048
%%%mzn-stat: 2AutonomousSearchNumPredicatesRemoved=0
%%%mzn-stat: 2AutonomousSearchNumCalls=1056
%%%mzn-stat: 2AutonomousSearchNumPredicatesAdded=462
%%%mzn-stat: 2AutonomousSearchAverageSizeOfHeap=1.5596590909090908
%%%mzn-stat: 2AutonomousSearchNumAssignedPredicatesEncountered=1647
%%%mzn-stat-end
maxleg = 368;
succ = array1d(1..20,[2, 4, 7, 3, 8, 12, 5, 13, 11, 9, 1, 19, 20, 10, 17, 14, 18, 6, 16, 15]);
% time elapsed: 5.96 s
----------
==========
% time elapsed: 5.96 s
%%%mzn-stat: initTime=0.003612148
%%%mzn-stat: objective=368
%%%mzn-stat: nodes=1309
%%%mzn-stat: restarts=0
%%%mzn-stat: peakDepth=175
%%%mzn-stat: solveTime=0.021903869
%%%mzn-stat: variables=362
%%%mzn-stat: propagators=247
%%%mzn-stat: failures=144
%%%mzn-stat: propagations=8881
%%%mzn-stat: nogoods=144
%%%mzn-stat: numAtomicConstraintsPropagated=0
%%%mzn-stat: allDifferentNumber1PropagationsTotal=725
%%%mzn-stat: allDifferentNumber1PropagationsThatFoundConflict=5
%%%mzn-stat: allDifferentNumber1PropagationsThatPruned=431
%%%mzn-stat: allDifferentNumber1TotalValuesPruned=1907
%%%mzn-stat: allDifferentNumber1TotalHallSetSizeConflict=11
%%%mzn-stat: allDifferentNumber1NumberOfConflicts=5
%%%mzn-stat: allDifferentNumber1MaxHallSetSizeConflict=3
%%%mzn-stat: allDifferentNumber1TotalPruningHallSetSize=4313
%%%mzn-stat: allDifferentNumber1NumberOfPruningExplanations=1907
%%%mzn-stat: allDifferentNumber1MaxPruningHallSetSize=19
%%%mzn-stat: allDifferentNumber1TotalFixedEdgesAtConflict=71
%%%mzn-stat: allDifferentNumber1TotalVarsInvolvedInPruning=1529
%%%mzn-stat: allDifferentNumber1MaxValuesPrunedFromSingleVar=6
%%%mzn-stat: allDifferentNumber1TotalSccSizeAtPruning=1973
%%%mzn-stat: allDifferentNumber1NumberOfSccPruningCalls=431
%%%mzn-stat: circuitNumber2PropagationsThatFoundConflict=137
%%%mzn-stat: circuitNumber2TotalFixedEdgesAtConflict=2337
%%%mzn-stat: circuitNumber2NumberOfConflicts=137
%%%mzn-stat: circuitNumber2PropagationsThatPruned=87
%%%mzn-stat: circuitNumber2PropagationsTotal=434
%%%mzn-stat: AverageConflictSize=8.395833333333334
%%%mzn-stat: NumUnitNogoodsLearned=1
%%%mzn-stat: AverageLearnedNogoodLength=17.868055555555557
%%%mzn-stat: AverageBacktrackAmount=0
%%%mzn-stat: AverageLbd=9.534722222222221
%%%mzn-stat: 2AutonomousSearchNumBackupCalled=1048
%%%mzn-stat: 2AutonomousSearchNumPredicatesRemoved=0
%%%mzn-stat: 2AutonomousSearchNumCalls=1056
%%%mzn-stat: 2AutonomousSearchNumPredicatesAdded=607
%%%mzn-stat: 2AutonomousSearchAverageSizeOfHeap=1.5596590909090908
%%%mzn-stat: 2AutonomousSearchNumAssignedPredicatesEncountered=1647
%%%mzn-stat-end
